7	4	7	7	7	4	7	4	7	7	4	7	4	7	7	7	4	7
7	7	4	7	4	4	4	4	4	4	4	4	4	4	7	4	7	7
4	7	7	4	4	4	4	4	5	4	4	5	4	4	4	7	7	4
7	4	7	4	4	5	4	4	4	4	4	4	4	4	4	7	4	7
7	4	4	4	4	4	4	5	4	4	5	4	4	5	4	4	4	7
4	4	4	5	4	4	4	4	4	4	4	4	4	4	4	4	4	4
2	3	3	3	3	3	3	2	3	3	3	3	3	3	3	3	3	2
2	2	3	3	2	3	3	3	3	3	2	3	3	3	2	3	3	2
3	3	3	3	3	3	3	2	3	3	3	3	3	3	3	3	3	3
6	3	3	3	3	3	3	3	3	3	3	3	3	2	3	3	3	6
